
Gurobi 7.0.2 (linux64, Matlab) logging started Sun Sep  2 08:55:59 2018


Gurobi 7.0.2 (linux64) logging started Sun Sep  2 08:55:59 2018

Optimize a model with 28171 rows, 54578 columns and 199798 nonzeros
Coefficient statistics:
  Matrix range     [4e-01, 2e+05]
  Objective range  [1e+00, 1e+02]
  Bounds range     [1e+00, 2e+05]
  RHS range        [1e+00, 3e+05]
Iteration    Objective       Primal Inf.    Dual Inf.      Time
       0   -3.9000000e+01   0.000000e+00   0.000000e+00      0s

Solved in 0 iterations and 0.02 seconds
Optimal objective -3.900000000e+01
